instances/tuning-use-case-3/oven_scheduling.minizinc_instance_0112-17.51.37.dzn
l=2447;
a=2;
setup_costs=[|7,7,
|7,7,
|0,0,|];
setup_times=[|14,14,
|14,14,
|0,0,|];
m=2;
min_cap=[0, 0];
max_cap=[44, 38];

initState=[2, 1];
s=5;
m_a_s = [|278,899,1031,1454,1736,
|0,0,407,1197,1797|];
m_a_e = [|784,1001,1439,1710,2337,
|0,0,1085,1670,2310|];
n=25;
eligible_machine =[{1, 2}, {1, 2}, {1, 2}, {1, 2}, {1}, {1}, {2}, {2}, {1, 2}, {1}, {1, 2}, {1, 2}, {1}, {1}, {1, 2}, {1, 2}, {1}, {1, 2}, {1, 2}, {1, 2}, {1, 2}, {1, 2}, {1}, {1, 2}, {1, 2}];
earliest_start=[27, 54, 81, 51, 31, 104, 127, 76, 34, 93, 83, 71, 136, 47, 125, 19, 7, 37, 11, 41, 72, 115, 123, 28, 123];
latest_end=[188, 85, 232, 179, 342, 112, 349, 183, 128, 165, 174, 365, 475, 301, 217, 63, 142, 134, 127, 235, 132, 416, 236, 45, 366];
min_time=[63, 10, 61, 38, 69, 2, 89, 75, 30, 40, 91, 87, 85, 56, 29, 40, 57, 22, 70, 64, 48, 69, 86, 8, 94];
max_time=[100, 100, 100, 100, 100, 100, 100, 100, 100, 100, 100, 100, 100, 100, 100, 100, 100, 100, 100, 100, 100, 100, 100, 100, 100];
size=[9, 9, 2, 18, 16, 16, 10, 1, 18, 9, 11, 19, 1, 3, 4, 11, 10, 10, 6, 15, 20, 4, 6, 17, 19];
attribute=[1, 1, 1, 2, 1, 2, 2, 2, 2, 1, 2, 1, 2, 1, 1, 1, 2, 2, 1, 2, 2, 2, 1, 1, 1];

upper_bound_integer_objective=7000;
mult_factor_total_runtime=2;
mult_factor_finished_toolate=112;
mult_factor_total_setuptimes=0;
mult_factor_total_setupcosts=8;
running_time_bound=1383;
min_duration=2;
max_duration=94;
max_setup_time=14;
max_setup_cost=7;